15
-1 83 38 91 3 24 52 77 68 42 59 5 18 90 99
41 -1 41 39 61 34 88 16 91 44 45 8 30 51 11
71 20 -1 87 69 42 12 39 86 99 6 74 17 78 66
20 44 64 -1 41 64 67 7 17 15 32 34 43 53 24
38 79 55 24 -1 12 66 97 52 87 84 19 89 89 22
70 97 11 82 7 -1 58 56 79 61 1 67 41 57 86
31 56 6 93 33 24 -1 8 84 37 91 62 84 41 67
70 58 15 8 18 33 57 -1 30 71 18 71 68 35 7
8 42 12 83 68 13 33 35 -1 27 36 70 82 45 77
18 40 56 70 46 19 83 21 29 -1 62 71 29 31 50
1 15 48 67 51 27 30 37 95 38 -1 26 49 87 82
14 81 20 51 53 14 24 94 5 65 84 -1 59 73 48
36 96 9 57 19 66 27 88 55 98 78 24 -1 47 9
35 61 20 30 18 19 28 86 25 21 68 46 18 -1 63
96 73 81 77 75 44 40 10 83 22 51 98 12 59 -1
